CLW08
Position Depot: Center
Horizon for Depot: Large
Position of customers: Cluster
Distribution of the demand: Small
Width of time windows: Wide
Distribution of the service: Small

VEHICLE 
NUMBER 	 CAPACITY 
 7 	 	 104 
 
CUSTOMER
CUST NO. 	 XCOORD.  	 YCOORD. 	 DEMAND 	 READY TIME 	 DUE DATE 	 SERVICE TIME 
 0 	 	 500 	 	 500 	 	 0 	 	 0 	 	 3529 	 	 0 
  1 	 	 806 	 	 337 	 	 10 	 	 313 	 	 803 	 	 89 
  2 	 	 453 	 	 181 	 	 5 	 	 3094 	 	 3507 	 	 55 
  3 	 	 996 	 	 8 	 	 8 	 	 3092 	 	 3367 	 	 64 
  4 	 	 104 	 	 255 	 	 10 	 	 837 	 	 1039 	 	 72 
  5 	 	 685 	 	 634 	 	 9 	 	 500 	 	 781 	 	 79 
  6 	 	 442 	 	 438 	 	 5 	 	 -93 	 	 255 	 	 86 
  7 	 	 972 	 	 137 	 	 7 	 	 290 	 	 654 	 	 65 
  8 	 	 699 	 	 663 	 	 6 	 	 2215 	 	 2542 	 	 77 
  9 	 	 688 	 	 315 	 	 8 	 	 612 	 	 1094 	 	 71 
  10 	 	 730 	 	 745 	 	 8 	 	 352 	 	 601 	 	 84 
  11 	 	 407 	 	 183 	 	 6 	 	 467 	 	 749 	 	 90 
  12 	 	 17 	 	 329 	 	 5 	 	 1136 	 	 1535 	 	 52 
  13 	 	 153 	 	 252 	 	 5 	 	 1183 	 	 1486 	 	 62 
  14 	 	 692 	 	 627 	 	 10 	 	 1477 	 	 1957 	 	 79 
  15 	 	 394 	 	 178 	 	 9 	 	 293 	 	 648 	 	 68 
  16 	 	 718 	 	 616 	 	 7 	 	 2124 	 	 2523 	 	 53 
  17 	 	 917 	 	 105 	 	 9 	 	 2071 	 	 2528 	 	 68 
  18 	 	 836 	 	 331 	 	 10 	 	 3169 	 	 3529 	 	 81 
  19 	 	 379 	 	 447 	 	 5 	 	 2414 	 	 2754 	 	 63 
  20 	 	 51 	 	 299 	 	 10 	 	 1319 	 	 1688 	 	 61 
  21 	 	 589 	 	 319 	 	 5 	 	 2952 	 	 3436 	 	 67 
  22 	 	 909 	 	 177 	 	 5 	 	 2341 	 	 2764 	 	 51 
  23 	 	 414 	 	 356 	 	 7 	 	 2107 	 	 2398 	 	 56 
  24 	 	 681 	 	 661 	 	 5 	 	 3284 	 	 3520 	 	 68 
  25 	 	 47 	 	 285 	 	 6 	 	 1777 	 	 2275 	 	 80 
  26 	 	 945 	 	 227 	 	 6 	 	 534 	 	 872 	 	 96 
  27 	 	 133 	 	 207 	 	 6 	 	 785 	 	 1004 	 	 52 
  28 	 	 833 	 	 301 	 	 8 	 	 921 	 	 1367 	 	 72 
  29 	 	 72 	 	 317 	 	 7 	 	 128 	 	 615 	 	 81 
  30 	 	 632 	 	 469 	 	 5 	 	 2497 	 	 2993 	 	 87 
  31 	 	 781 	 	 155 	 	 9 	 	 3014 	 	 3221 	 	 93 
  32 	 	 756 	 	 624 	 	 10 	 	 2817 	 	 3050 	 	 88 
  33 	 	 92 	 	 306 	 	 10 	 	 742 	 	 953 	 	 71 
  34 	 	 98 	 	 259 	 	 5 	 	 2901 	 	 3337 	 	 81 
  35 	 	 796 	 	 318 	 	 8 	 	 2833 	 	 3202 	 	 56 
  36 	 	 706 	 	 262 	 	 6 	 	 1900 	 	 2180 	 	 100 
  37 	 	 374 	 	 417 	 	 10 	 	 2837 	 	 3336 	 	 56 
  38 	 	 401 	 	 432 	 	 8 	 	 3187 	 	 3529 	 	 65 
  39 	 	 79 	 	 265 	 	 5 	 	 3118 	 	 3320 	 	 82 
  40 	 	 539 	 	 115 	 	 6 	 	 1871 	 	 2142 	 	 97 
  41 	 	 994 	 	 191 	 	 10 	 	 176 	 	 640 	 	 67 
  42 	 	 468 	 	 82 	 	 10 	 	 1193 	 	 1614 	 	 58 
  43 	 	 668 	 	 313 	 	 9 	 	 3039 	 	 3470 	 	 86 
  44 	 	 111 	 	 251 	 	 10 	 	 2379 	 	 2797 	 	 60 
  45 	 	 463 	 	 210 	 	 9 	 	 541 	 	 1007 	 	 87 
  46 	 	 160 	 	 289 	 	 5 	 	 3212 	 	 3529 	 	 98 
  47 	 	 381 	 	 543 	 	 10 	 	 -185 	 	 297 	 	 73 
  48 	 	 989 	 	 162 	 	 8 	 	 2698 	 	 2992 	 	 62 
  49 	 	 897 	 	 35 	 	 7 	 	 199 	 	 672 	 	 55 
  50 	 	 987 	 	 6 	 	 7 	 	 1520 	 	 1751 	 	 50 
  51 	 	 912 	 	 292 	 	 8 	 	 584 	 	 839 	 	 73 
  52 	 	 453 	 	 564 	 	 5 	 	 2056 	 	 2489 	 	 63 
  53 	 	 958 	 	 69 	 	 5 	 	 1018 	 	 1355 	 	 53 
  54 	 	 925 	 	 30 	 	 8 	 	 443 	 	 703 	 	 71 
  55 	 	 851 	 	 538 	 	 5 	 	 2910 	 	 3236 	 	 59 
  56 	 	 708 	 	 641 	 	 7 	 	 33 	 	 276 	 	 71 
  57 	 	 439 	 	 507 	 	 7 	 	 30 	 	 455 	 	 85 
  58 	 	 398 	 	 315 	 	 7 	 	 1178 	 	 1463 	 	 84 
  59 	 	 480 	 	 418 	 	 6 	 	 1978 	 	 2229 	 	 82 
  60 	 	 769 	 	 666 	 	 7 	 	 1474 	 	 1952 	 	 79 
  61 	 	 705 	 	 633 	 	 9 	 	 2603 	 	 3057 	 	 86 
  62 	 	 79 	 	 289 	 	 9 	 	 517 	 	 948 	 	 84 
  63 	 	 81 	 	 317 	 	 10 	 	 2467 	 	 2719 	 	 69 
  64 	 	 972 	 	 188 	 	 10 	 	 2308 	 	 2776 	 	 67 
  65 	 	 659 	 	 355 	 	 5 	 	 3193 	 	 3529 	 	 74 
  66 	 	 748 	 	 335 	 	 5 	 	 3138 	 	 3397 	 	 62 
  67 	 	 958 	 	 149 	 	 7 	 	 1944 	 	 2230 	 	 63 
  68 	 	 799 	 	 678 	 	 10 	 	 1579 	 	 1833 	 	 54 
  69 	 	 458 	 	 202 	 	 5 	 	 1438 	 	 1801 	 	 80 
  70 	 	 839 	 	 384 	 	 9 	 	 1189 	 	 1553 	 	 78 
  71 	 	 476 	 	 538 	 	 6 	 	 1266 	 	 1470 	 	 50 
  72 	 	 853 	 	 406 	 	 9 	 	 1582 	 	 1942 	 	 53 
  73 	 	 521 	 	 350 	 	 5 	 	 1979 	 	 2313 	 	 62 
  74 	 	 469 	 	 196 	 	 10 	 	 1059 	 	 1485 	 	 59 
  75 	 	 126 	 	 301 	 	 10 	 	 2350 	 	 2720 	 	 78 
  76 	 	 772 	 	 256 	 	 6 	 	 1349 	 	 1824 	 	 95 
  77 	 	 995 	 	 41 	 	 8 	 	 2822 	 	 3028 	 	 82 
  78 	 	 735 	 	 672 	 	 5 	 	 2639 	 	 3063 	 	 67 
  79 	 	 61 	 	 294 	 	 9 	 	 2444 	 	 2887 	 	 50 
  80 	 	 639 	 	 606 	 	 7 	 	 54 	 	 330 	 	 69 
  81 	 	 466 	 	 340 	 	 10 	 	 3066 	 	 3529 	 	 90 
  82 	 	 724 	 	 344 	 	 9 	 	 1941 	 	 2396 	 	 76 
  83 	 	 764 	 	 607 	 	 9 	 	 429 	 	 890 	 	 86 
  84 	 	 390 	 	 596 	 	 6 	 	 1691 	 	 2091 	 	 85 
  85 	 	 144 	 	 202 	 	 6 	 	 2957 	 	 3312 	 	 74 
  86 	 	 763 	 	 323 	 	 5 	 	 3166 	 	 3403 	 	 51 
  87 	 	 452 	 	 180 	 	 9 	 	 2136 	 	 2428 	 	 87 
  88 	 	 479 	 	 117 	 	 8 	 	 2460 	 	 2956 	 	 93 
  89 	 	 776 	 	 410 	 	 6 	 	 959 	 	 1318 	 	 56 
  90 	 	 819 	 	 221 	 	 8 	 	 1274 	 	 1573 	 	 81 
  91 	 	 105 	 	 322 	 	 7 	 	 2173 	 	 2503 	 	 96 
  92 	 	 178 	 	 318 	 	 10 	 	 66 	 	 406 	 	 95 
  93 	 	 95 	 	 267 	 	 5 	 	 1512 	 	 1789 	 	 77 
  94 	 	 517 	 	 280 	 	 5 	 	 1501 	 	 1855 	 	 77 
  95 	 	 964 	 	 143 	 	 5 	 	 1775 	 	 2165 	 	 74 
  96 	 	 141 	 	 251 	 	 9 	 	 2883 	 	 3318 	 	 75 
  97 	 	 711 	 	 638 	 	 10 	 	 749 	 	 1199 	 	 73 
  98 	 	 476 	 	 379 	 	 5 	 	 2776 	 	 3010 	 	 57 
  99 	 	 710 	 	 631 	 	 6 	 	 380 	 	 599 	 	 73 
  100 	 	 854 	 	 378 	 	 9 	 	 2121 	 	 2524 	 	 78 
 